* Signature: 0x75e903e765c2df2a
NAME idol-model
ROWS
 N  OBJ
 L  c_1510  
COLUMNS
    MARKER    'MARKER'                 'INTORG'
    u_0       c_1510    1
    u_1       c_1510    1
    u_2       c_1510    1
    u_3       c_1510    1
    u_4       c_1510    1
    u_5       c_1510    1
    u_6       c_1510    1
    u_7       c_1510    1
    u_8       c_1510    1
    u_9       c_1510    1
    u_10      c_1510    1
    u_11      c_1510    1
    u_12      c_1510    1
    u_13      c_1510    1
    u_14      c_1510    1
    u_15      c_1510    1
    u_16      c_1510    1
    u_17      c_1510    1
    u_18      c_1510    1
    u_19      c_1510    1
    MARKER    'MARKER'                 'INTEND'
RHS
    RHS1      c_1510    4
BOUNDS
 BV BND1      u_0     
 BV BND1      u_1     
 BV BND1      u_2     
 BV BND1      u_3     
 BV BND1      u_4     
 BV BND1      u_5     
 BV BND1      u_6     
 BV BND1      u_7     
 BV BND1      u_8     
 BV BND1      u_9     
 BV BND1      u_10    
 BV BND1      u_11    
 BV BND1      u_12    
 BV BND1      u_13    
 BV BND1      u_14    
 BV BND1      u_15    
 BV BND1      u_16    
 BV BND1      u_17    
 BV BND1      u_18    
 BV BND1      u_19    
ENDATA
